(set-option :print-success true)
(set-option :produce-models true)
(set-logic ALL)
(declare-sort Unspecified 0)
(declare-sort Unit 0)
(declare-const loaded_value_0 (_ BitVec 64))
(declare-const clif_load_active_1 Bool)
(declare-const clif_load_size_bits_2 Int)
(declare-const clif_load_addr_3 (_ BitVec 64))
(declare-const clif_store_active_4 Bool)
(declare-const clif_store_size_bits_5 Int)
(declare-const clif_store_addr_6 (_ BitVec 64))
(declare-const clif_store_value_7 (_ BitVec 64))
(declare-const clif_trap_8 Bool)
(declare-const isa_load_active_9 Bool)
(declare-const isa_load_size_bits_10 Int)
(declare-const isa_load_addr_11 (_ BitVec 64))
(declare-const isa_store_active_12 Bool)
(declare-const isa_store_size_bits_13 Int)
(declare-const isa_store_addr_14 (_ BitVec 64))
(declare-const isa_store_value_15 (_ BitVec 64))
(declare-const b0_16 (_ BitVec 1))
(declare-const b3_some_17 Bool)
(declare-const b3_inner_0_aligned_18 Bool)
(declare-const b3_inner_0_trapcode_19 (_ BitVec 4))
(declare-const b3_inner_1_20 (_ BitVec 64))
(declare-const b3_inner_2_21 (_ BitVec 64))
(declare-const b3_inner_3_22 (_ BitVec 32))
(declare-const e23 Bool)
(assert (! (= e23 true) :named expr23))
(declare-const e24 Int)
(assert (! (= e24 64) :named expr24))
(declare-const e25 Bool)
(assert (! (= e25 (= clif_store_size_bits_5 e24)) :named expr25))
(declare-const e26 Int)
(assert (! (= e26 64) :named expr26))
(declare-const e27 (_ BitVec 64))
(assert (! (= e27 ((_ sign_extend 32) b3_inner_3_22)) :named expr27))
(declare-const e28 (_ BitVec 64))
(assert (! (= e28 (bvadd b3_inner_2_21 e27)) :named expr28))
(declare-const e29 Bool)
(assert (! (= e29 (= clif_store_addr_6 e28)) :named expr29))
(declare-const e30 (_ BitVec 64))
(assert (! (= e30 clif_store_value_7) :named expr30))
(declare-const e31 Bool)
(assert (! (= e31 (= e30 b3_inner_1_20)) :named expr31))
(declare-const e32 Bool)
(assert (! (= e32 (and e29 e31)) :named expr32))
(declare-const e33 Bool)
(assert (! (= e33 (and e25 e32)) :named expr33))
(declare-const e34 Bool)
(assert (! (= e34 (and clif_store_active_4 e33)) :named expr34))
(declare-const e35 (_ BitVec 1))
(assert (! (= e35 #b1) :named expr35))
(declare-const e36 Bool)
(assert (! (= e36 (= b0_16 e35)) :named expr36))
(declare-const e37 Bool)
(assert (! (= e37 (and e34 e36)) :named expr37))
(declare-const e38 Bool)
(assert (! (= e38 (= b3_some_17 e23)) :named expr38))
(declare-const e39 Bool)
(assert (! (= e39 (=> e23 e37)) :named expr39))
(declare-const b4_0_aligned_40 Bool)
(declare-const b4_0_trapcode_41 (_ BitVec 4))
(declare-const b4_1_42 (_ BitVec 64))
(declare-const b4_2_43 (_ BitVec 64))
(declare-const b4_3_44 (_ BitVec 32))
(declare-const e45 Bool)
(assert (! (= e45 (= b4_0_aligned_40 b3_inner_0_aligned_18)) :named expr45))
(declare-const e46 Bool)
(assert (! (= e46 (= b4_0_trapcode_41 b3_inner_0_trapcode_19)) :named expr46))
(declare-const e47 Bool)
(assert (! (= e47 (and e45 e46)) :named expr47))
(declare-const e48 Bool)
(assert (! (= e48 (= b4_1_42 b3_inner_1_20)) :named expr48))
(declare-const e49 Bool)
(assert (! (= e49 (= b4_2_43 b3_inner_2_21)) :named expr49))
(declare-const e50 Bool)
(assert (! (= e50 (= b4_3_44 b3_inner_3_22)) :named expr50))
(declare-const e51 Bool)
(assert (! (= e51 (and e47 e48)) :named expr51))
(declare-const e52 Bool)
(assert (! (= e52 (and e51 e49)) :named expr52))
(declare-const e53 Bool)
(assert (! (= e53 (and e52 e50)) :named expr53))
(declare-const e54 Bool)
(assert (! (= e54 (=> b3_some_17 e53)) :named expr54))
(declare-const b5_55 (_ BitVec 64))
(declare-const e56 Bool)
(assert (! (= e56 (= b5_55 b4_1_42)) :named expr56))
(declare-const b6_some_57 Bool)
(declare-const b6_inner_58 (_ BitVec 64))
(declare-const e59 Bool)
(assert (! (= e59 (= b5_55 b6_inner_58)) :named expr59))
(declare-const e60 Bool)
(assert (! (= e60 (= b6_some_57 e23)) :named expr60))
(declare-const e61 Bool)
(assert (! (= e61 (=> e23 e59)) :named expr61))
(declare-const b7_62 (_ BitVec 64))
(declare-const e63 Bool)
(assert (! (= e63 (= b7_62 b6_inner_58)) :named expr63))
(declare-const e64 Bool)
(assert (! (= e64 (=> b6_some_57 e63)) :named expr64))
(declare-const b8_some_65 Bool)
(declare-const b8_inner_0_bits_66 Int)
(declare-const b8_inner_1_67 (_ BitVec 64))
(declare-const e68 Bool)
(assert (! (= e68 (= b7_62 b8_inner_1_67)) :named expr68))
(declare-const e69 Int)
(assert (! (= e69 64) :named expr69))
(declare-const e70 Bool)
(assert (! (= e70 (= b8_inner_0_bits_66 e69)) :named expr70))
(declare-const e71 Bool)
(assert (! (= e71 (= b8_some_65 e23)) :named expr71))
(declare-const e72 Bool)
(assert (! (= e72 (and e68 e70)) :named expr72))
(declare-const e73 Bool)
(assert (! (= e73 (=> e23 e72)) :named expr73))
(declare-const b9_0_bits_74 Int)
(declare-const b9_1_75 (_ BitVec 64))
(declare-const e76 Bool)
(assert (! (= e76 (= b9_0_bits_74 b8_inner_0_bits_66)) :named expr76))
(declare-const e77 Bool)
(assert (! (= e77 (= b9_1_75 b8_inner_1_67)) :named expr77))
(declare-const e78 Bool)
(assert (! (= e78 (and e76 e77)) :named expr78))
(declare-const e79 Bool)
(assert (! (= e79 (=> b8_some_65 e78)) :named expr79))
(declare-const b10_bits_80 Int)
(declare-const e81 Bool)
(assert (! (= e81 (= b10_bits_80 b9_0_bits_74)) :named expr81))
(declare-const b11_some_82 Bool)
(declare-const b11_inner_bits_83 Int)
(declare-const e84 Int)
(assert (! (= e84 32) :named expr84))
(declare-const e85 Bool)
(assert (! (= e85 (= b10_bits_80 e84)) :named expr85))
(declare-const e86 Bool)
(assert (! (= e86 (= b10_bits_80 e26)) :named expr86))
(declare-const e87 Bool)
(assert (! (= e87 (or e85 e86)) :named expr87))
(declare-const e88 Bool)
(assert (! (= e88 (= b10_bits_80 b11_inner_bits_83)) :named expr88))
(declare-const e89 Bool)
(assert (! (= e89 (= b11_some_82 e87)) :named expr89))
(declare-const e90 Bool)
(assert (! (= e90 (=> e87 e88)) :named expr90))
(declare-const b12_91 (_ BitVec 64))
(declare-const e92 Bool)
(assert (! (= e92 (= b12_91 b9_1_75)) :named expr92))
(declare-const b13_some_93 Bool)
(declare-const b13_inner_0_bits_94 Int)
(declare-const b13_inner_1_95 (_ BitVec 64))
(declare-const b13_inner_2_96 (_ BitVec 64))
(declare-const e97 (_ BitVec 64))
(assert (! (= e97 (bvxor b13_inner_1_95 b13_inner_2_96)) :named expr97))
(declare-const e98 Bool)
(assert (! (= e98 (= b12_91 e97)) :named expr98))
(declare-const e99 Bool)
(assert (! (= e99 (= b13_some_93 e23)) :named expr99))
(declare-const e100 Bool)
(assert (! (= e100 (=> e23 e98)) :named expr100))
(declare-const b14_0_bits_101 Int)
(declare-const b14_1_102 (_ BitVec 64))
(declare-const b14_2_103 (_ BitVec 64))
(declare-const e104 Bool)
(assert (! (= e104 (= b14_0_bits_101 b13_inner_0_bits_94)) :named expr104))
(declare-const e105 Bool)
(assert (! (= e105 (= b14_1_102 b13_inner_1_95)) :named expr105))
(declare-const e106 Bool)
(assert (! (= e106 (= b14_2_103 b13_inner_2_96)) :named expr106))
(declare-const e107 Bool)
(assert (! (= e107 (and e104 e105)) :named expr107))
(declare-const e108 Bool)
(assert (! (= e108 (and e107 e106)) :named expr108))
(declare-const e109 Bool)
(assert (! (= e109 (=> b13_some_93 e108)) :named expr109))
(declare-const b15_110 (_ BitVec 64))
(declare-const e111 Bool)
(assert (! (= e111 (= b15_110 b14_1_102)) :named expr111))
(declare-const b16_some_112 Bool)
(declare-const b16_inner_113 (_ BitVec 64))
(declare-const e114 Bool)
(assert (! (= e114 (= b15_110 b16_inner_113)) :named expr114))
(declare-const e115 Bool)
(assert (! (= e115 (= b16_some_112 e23)) :named expr115))
(declare-const e116 Bool)
(assert (! (= e116 (=> e23 e114)) :named expr116))
(declare-const b17_some_117 Bool)
(declare-const b17_inner_118 (_ BitVec 64))
(declare-const e119 Bool)
(assert (! (= e119 (= b15_110 b17_inner_118)) :named expr119))
(declare-const e120 Bool)
(assert (! (= e120 (= b17_some_117 e23)) :named expr120))
(declare-const e121 Bool)
(assert (! (= e121 (=> e23 e119)) :named expr121))
(declare-const b18_122 (_ BitVec 64))
(declare-const e123 Bool)
(assert (! (= e123 (= b18_122 b17_inner_118)) :named expr123))
(declare-const e124 Bool)
(assert (! (= e124 (=> b17_some_117 e123)) :named expr124))
(declare-const b19_some_125 Bool)
(declare-const b19_inner_0_bits_126 Int)
(declare-const b19_inner_1_aligned_127 Bool)
(declare-const b19_inner_1_trapcode_128 (_ BitVec 4))
(declare-const b19_inner_2_129 (_ BitVec 64))
(declare-const b19_inner_3_130 (_ BitVec 32))
(declare-const e131 Int)
(assert (! (= e131 64) :named expr131))
(declare-const e132 Bool)
(assert (! (= e132 (= clif_load_size_bits_2 e131)) :named expr132))
(declare-const e133 (_ BitVec 64))
(assert (! (= e133 ((_ sign_extend 32) b19_inner_3_130)) :named expr133))
(declare-const e134 (_ BitVec 64))
(assert (! (= e134 (bvadd b19_inner_2_129 e133)) :named expr134))
(declare-const e135 Bool)
(assert (! (= e135 (= clif_load_addr_3 e134)) :named expr135))
(declare-const e136 Bool)
(assert (! (= e136 (and e132 e135)) :named expr136))
(declare-const e137 Bool)
(assert (! (= e137 (and clif_load_active_1 e136)) :named expr137))
(declare-const e138 (_ BitVec 64))
(assert (! (= e138 loaded_value_0) :named expr138))
(declare-const e139 Bool)
(assert (! (= e139 (= b18_122 e138)) :named expr139))
(declare-const e140 Bool)
(assert (! (= e140 (= b19_some_125 e23)) :named expr140))
(declare-const e141 Bool)
(assert (! (= e141 (and e137 e139)) :named expr141))
(declare-const e142 Bool)
(assert (! (= e142 (=> e23 e141)) :named expr142))
(declare-const b20_aligned_143 Bool)
(declare-const b20_trapcode_144 (_ BitVec 4))
(declare-const e145 Bool)
(assert (! (= e145 (= b20_aligned_143 b4_0_aligned_40)) :named expr145))
(declare-const e146 Bool)
(assert (! (= e146 (= b20_trapcode_144 b4_0_trapcode_41)) :named expr146))
(declare-const e147 Bool)
(assert (! (= e147 (and e145 e146)) :named expr147))
(declare-const b21_0_bits_148 Int)
(declare-const b21_1_aligned_149 Bool)
(declare-const b21_1_trapcode_150 (_ BitVec 4))
(declare-const b21_2_151 (_ BitVec 64))
(declare-const b21_3_152 (_ BitVec 32))
(declare-const e153 Bool)
(assert (! (= e153 (= b21_0_bits_148 b19_inner_0_bits_126)) :named expr153))
(declare-const e154 Bool)
(assert (! (= e154 (= b21_1_aligned_149 b19_inner_1_aligned_127)) :named expr154))
(declare-const e155 Bool)
(assert (! (= e155 (= b21_1_trapcode_150 b19_inner_1_trapcode_128)) :named expr155))
(declare-const e156 Bool)
(assert (! (= e156 (and e154 e155)) :named expr156))
(declare-const e157 Bool)
(assert (! (= e157 (= b21_2_151 b19_inner_2_129)) :named expr157))
(declare-const e158 Bool)
(assert (! (= e158 (= b21_3_152 b19_inner_3_130)) :named expr158))
(declare-const e159 Bool)
(assert (! (= e159 (and e153 e156)) :named expr159))
(declare-const e160 Bool)
(assert (! (= e160 (and e159 e157)) :named expr160))
(declare-const e161 Bool)
(assert (! (= e161 (and e160 e158)) :named expr161))
(declare-const e162 Bool)
(assert (! (= e162 (=> b19_some_125 e161)) :named expr162))
(declare-const b22_aligned_163 Bool)
(declare-const b22_trapcode_164 (_ BitVec 4))
(declare-const e165 Bool)
(assert (! (= e165 (= b22_aligned_163 b21_1_aligned_149)) :named expr165))
(declare-const e166 Bool)
(assert (! (= e166 (= b22_trapcode_164 b21_1_trapcode_150)) :named expr166))
(declare-const e167 Bool)
(assert (! (= e167 (and e165 e166)) :named expr167))
(declare-const b23_168 (_ BitVec 64))
(declare-const e169 Bool)
(assert (! (= e169 (= b23_168 b21_2_151)) :named expr169))
(declare-const b24_170 (_ BitVec 64))
(declare-const e171 Bool)
(assert (! (= e171 (= b24_170 b4_2_43)) :named expr171))
(declare-const b25_172 (_ BitVec 32))
(declare-const e173 Bool)
(assert (! (= e173 (= b25_172 b21_3_152)) :named expr173))
(declare-const b26_174 (_ BitVec 32))
(declare-const e175 Bool)
(assert (! (= e175 (= b26_174 b4_3_44)) :named expr175))
(declare-const b27_176 (_ BitVec 64))
(declare-const e177 Bool)
(assert (! (= e177 (= b27_176 b16_inner_113)) :named expr177))
(declare-const e178 Bool)
(assert (! (= e178 (=> b16_some_112 e177)) :named expr178))
(declare-const b30_179 (_ BitVec 64))
(declare-const e180 Bool)
(assert (! (= e180 (= b30_179 b14_2_103)) :named expr180))
(declare-const b31_181 (_ BitVec 64))
(declare-const e182 (_ BitVec 64))
(assert (! (= e182 b30_179) :named expr182))
(declare-const e183 Bool)
(assert (! (= e183 (= b31_181 e182)) :named expr183))
(declare-const b32_bits_184 Int)
(declare-const e185 Bool)
(assert (! (= e185 (= b32_bits_184 b11_inner_bits_83)) :named expr185))
(declare-const e186 Bool)
(assert (! (= e186 (=> b11_some_82 e185)) :named expr186))
(declare-const b35_some_187 Bool)
(declare-const b35_inner_188 (_ BitVec 1))
(declare-const b38_189 (_ BitVec 1))
(declare-const e190 Bool)
(assert (! (= e190 (= b38_189 e35)) :named expr190))
(declare-const e191 Bool)
(assert (! (= e191 (= b38_189 b35_inner_188)) :named expr191))
(declare-const b37_192 (_ BitVec 1))
(declare-const b69_discriminant_193 Int)
(declare-const b69_Inst_inst_194 (_ BitVec 1))
(declare-const b69_Inst2_inst1_195 (_ BitVec 1))
(declare-const b69_Inst2_inst2_196 (_ BitVec 1))
(declare-const b69_Inst3_inst1_197 (_ BitVec 1))
(declare-const b69_Inst3_inst2_198 (_ BitVec 1))
(declare-const b69_Inst3_inst3_199 (_ BitVec 1))
(declare-const e200 Int)
(assert (! (= e200 0) :named expr200))
(declare-const e201 Int)
(assert (! (= e201 3) :named expr201))
(declare-const e202 Bool)
(assert (! (= e202 (<= e200 b69_discriminant_193)) :named expr202))
(declare-const e203 Bool)
(assert (! (= e203 (< b69_discriminant_193 e201)) :named expr203))
(declare-const e204 Bool)
(assert (! (= e204 (and e202 e203)) :named expr204))
(declare-const b68_205 (_ BitVec 1))
(declare-const b66_discriminant_206 Int)
(declare-const e207 Int)
(assert (! (= e207 4) :named expr207))
(declare-const e208 Bool)
(assert (! (= e208 (<= e200 b66_discriminant_206)) :named expr208))
(declare-const e209 Bool)
(assert (! (= e209 (< b66_discriminant_206 e207)) :named expr209))
(declare-const e210 Bool)
(assert (! (= e210 (and e208 e209)) :named expr210))
(declare-const e211 Bool)
(assert (! (= e211 (= b32_bits_184 e26)) :named expr211))
(declare-const e212 Bool)
(assert (! (= e212 (<= e200 e201)) :named expr212))
(declare-const e213 Bool)
(assert (! (= e213 (< e201 e207)) :named expr213))
(declare-const e214 Bool)
(assert (! (= e214 (and e212 e213)) :named expr214))
(declare-const e215 Int)
(assert (! (= e215 2) :named expr215))
(declare-const e216 Bool)
(assert (! (= e216 (<= e200 e215)) :named expr216))
(declare-const e217 Bool)
(assert (! (= e217 (< e215 e207)) :named expr217))
(declare-const e218 Bool)
(assert (! (= e218 (and e216 e217)) :named expr218))
(declare-const e219 Int)
(assert (! (= e219 (ite e211 e201 e215)) :named expr219))
(declare-const e220 Bool)
(assert (! (= e220 (= b66_discriminant_206 e219)) :named expr220))
(declare-const e221 Bool)
(assert (! (= e221 (= b66_discriminant_206 e200)) :named expr221))
(declare-const e222 Bool)
(assert (! (= e222 (=> e221 e23)) :named expr222))
(declare-const e223 Int)
(assert (! (= e223 1) :named expr223))
(declare-const e224 Bool)
(assert (! (= e224 (= b66_discriminant_206 e223)) :named expr224))
(declare-const e225 Bool)
(assert (! (= e225 (=> e224 e23)) :named expr225))
(declare-const e226 Bool)
(assert (! (= e226 (= b66_discriminant_206 e215)) :named expr226))
(declare-const e227 Bool)
(assert (! (= e227 (=> e226 e23)) :named expr227))
(declare-const e228 Bool)
(assert (! (= e228 (= b66_discriminant_206 e201)) :named expr228))
(declare-const e229 Bool)
(assert (! (= e229 (=> e228 e23)) :named expr229))
(declare-const e230 Bool)
(assert (! (= e230 (and e220 e222)) :named expr230))
(declare-const e231 Bool)
(assert (! (= e231 (and e230 e225)) :named expr231))
(declare-const e232 Bool)
(assert (! (= e232 (and e231 e227)) :named expr232))
(declare-const e233 Bool)
(assert (! (= e233 (and e232 e229)) :named expr233))
(declare-const b42_discriminant_234 Int)
(declare-const e235 Int)
(assert (! (= e235 7) :named expr235))
(declare-const e236 Bool)
(assert (! (= e236 (<= e200 b42_discriminant_234)) :named expr236))
(declare-const e237 Bool)
(assert (! (= e237 (< b42_discriminant_234 e235)) :named expr237))
(declare-const e238 Bool)
(assert (! (= e238 (and e236 e237)) :named expr238))
(declare-const e239 Int)
(assert (! (= e239 6) :named expr239))
(declare-const e240 Bool)
(assert (! (= e240 (<= e200 e239)) :named expr240))
(declare-const e241 Bool)
(assert (! (= e241 (< e239 e235)) :named expr241))
(declare-const e242 Bool)
(assert (! (= e242 (and e240 e241)) :named expr242))
(declare-const e243 Bool)
(assert (! (= e243 (= b42_discriminant_234 e239)) :named expr243))
(declare-const e244 Bool)
(assert (! (= e244 (= b42_discriminant_234 e200)) :named expr244))
(declare-const e245 Bool)
(assert (! (= e245 (=> e244 e23)) :named expr245))
(declare-const e246 Bool)
(assert (! (= e246 (= b42_discriminant_234 e223)) :named expr246))
(declare-const e247 Bool)
(assert (! (= e247 (=> e246 e23)) :named expr247))
(declare-const e248 Bool)
(assert (! (= e248 (= b42_discriminant_234 e215)) :named expr248))
(declare-const e249 Bool)
(assert (! (= e249 (=> e248 e23)) :named expr249))
(declare-const e250 Bool)
(assert (! (= e250 (= b42_discriminant_234 e201)) :named expr250))
(declare-const e251 Bool)
(assert (! (= e251 (=> e250 e23)) :named expr251))
(declare-const e252 Bool)
(assert (! (= e252 (= b42_discriminant_234 e207)) :named expr252))
(declare-const e253 Bool)
(assert (! (= e253 (=> e252 e23)) :named expr253))
(declare-const e254 Int)
(assert (! (= e254 5) :named expr254))
(declare-const e255 Bool)
(assert (! (= e255 (= b42_discriminant_234 e254)) :named expr255))
(declare-const e256 Bool)
(assert (! (= e256 (=> e255 e23)) :named expr256))
(declare-const e257 Bool)
(assert (! (= e257 (=> e243 e23)) :named expr257))
(declare-const e258 Bool)
(assert (! (= e258 (and e243 e245)) :named expr258))
(declare-const e259 Bool)
(assert (! (= e259 (and e258 e247)) :named expr259))
(declare-const e260 Bool)
(assert (! (= e260 (and e259 e249)) :named expr260))
(declare-const e261 Bool)
(assert (! (= e261 (and e260 e251)) :named expr261))
(declare-const e262 Bool)
(assert (! (= e262 (and e261 e253)) :named expr262))
(declare-const e263 Bool)
(assert (! (= e263 (and e262 e256)) :named expr263))
(declare-const e264 Bool)
(assert (! (= e264 (and e263 e257)) :named expr264))
(declare-const b67_265 (_ BitVec 64))
(declare-const b93_addr_266 (_ BitVec 64))
(declare-const b93_flags_aligned_267 Bool)
(declare-const b93_flags_trapcode_268 (_ BitVec 4))
(declare-const b92_269 (_ BitVec 32))
(declare-const e270 Bool)
(assert (! (= e270 (= b92_269 b25_172)) :named expr270))
(declare-const b89_271 (_ BitVec 64))
(declare-const b52_272 (_ BitVec 64))
(declare-const b50_0_bits_273 Int)
(declare-const b50_1_274 (_ BitVec 64))
(declare-const b50_2_275 (_ BitVec 64))
(declare-const b49_some_276 Bool)
(declare-const b49_inner_0_bits_277 Int)
(declare-const b49_inner_1_278 (_ BitVec 64))
(declare-const b49_inner_2_279 (_ BitVec 64))
(declare-const b48_280 (_ BitVec 64))
(declare-const b47_some_281 Bool)
(declare-const b47_inner_282 (_ BitVec 64))
(declare-const e283 Bool)
(assert (! (= e283 (= b23_168 b47_inner_282)) :named expr283))
(declare-const e284 Bool)
(assert (! (= e284 (= b47_some_281 e23)) :named expr284))
(declare-const e285 Bool)
(assert (! (= e285 (=> e23 e283)) :named expr285))
(declare-const e286 Bool)
(assert (! (= e286 (= b48_280 b47_inner_282)) :named expr286))
(declare-const e287 Bool)
(assert (! (= e287 (=> b47_some_281 e286)) :named expr287))
(declare-const e288 (_ BitVec 64))
(assert (! (= e288 (bvadd b49_inner_1_278 b49_inner_2_279)) :named expr288))
(declare-const e289 Bool)
(assert (! (= e289 (= b48_280 e288)) :named expr289))
(declare-const e290 Bool)
(assert (! (= e290 (= b49_some_276 e23)) :named expr290))
(declare-const e291 Bool)
(assert (! (= e291 (=> e23 e289)) :named expr291))
(declare-const e292 Bool)
(assert (! (= e292 (= b50_0_bits_273 b49_inner_0_bits_277)) :named expr292))
(declare-const e293 Bool)
(assert (! (= e293 (= b50_1_274 b49_inner_1_278)) :named expr293))
(declare-const e294 Bool)
(assert (! (= e294 (= b50_2_275 b49_inner_2_279)) :named expr294))
(declare-const e295 Bool)
(assert (! (= e295 (and e292 e293)) :named expr295))
(declare-const e296 Bool)
(assert (! (= e296 (and e295 e294)) :named expr296))
(declare-const e297 Bool)
(assert (! (= e297 (=> b49_some_276 e296)) :named expr297))
(declare-const e298 Bool)
(assert (! (= e298 (= b52_272 b50_2_275)) :named expr298))
(declare-const e299 (_ BitVec 64))
(assert (! (= e299 b52_272) :named expr299))
(declare-const e300 Bool)
(assert (! (= e300 (= b89_271 e299)) :named expr300))
(declare-const b91_301 (_ BitVec 64))
(declare-const b90_302 (_ BitVec 64))
(declare-const b77_0_bits_303 Int)
(declare-const b77_1_304 (_ BitVec 64))
(declare-const b77_2_305 (_ BitVec 64))
(declare-const b76_some_306 Bool)
(declare-const b76_inner_0_bits_307 Int)
(declare-const b76_inner_1_308 (_ BitVec 64))
(declare-const b76_inner_2_309 (_ BitVec 64))
(declare-const b75_310 (_ BitVec 64))
(declare-const b74_some_311 Bool)
(declare-const b74_inner_312 (_ BitVec 64))
(declare-const b51_313 (_ BitVec 64))
(declare-const e314 Bool)
(assert (! (= e314 (= b51_313 b50_1_274)) :named expr314))
(declare-const e315 Bool)
(assert (! (= e315 (= b51_313 b74_inner_312)) :named expr315))
(declare-const e316 Bool)
(assert (! (= e316 (= b74_some_311 e23)) :named expr316))
(declare-const e317 Bool)
(assert (! (= e317 (=> e23 e315)) :named expr317))
(declare-const e318 Bool)
(assert (! (= e318 (= b75_310 b74_inner_312)) :named expr318))
(declare-const e319 Bool)
(assert (! (= e319 (=> b74_some_311 e318)) :named expr319))
(declare-const e320 Int)
(assert (! (= e320 64) :named expr320))
(declare-const e321 (_ BitVec 64))
(assert (! (= e321 ((_ int2bv 64) e320)) :named expr321))
(declare-const e322 (_ BitVec 64))
(assert (! (= e322 #b0000000000000000000000000000000000000000000000000000000000000001) :named expr322))
(declare-const e323 (_ BitVec 64))
(assert (! (= e323 (bvsub e321 e322)) :named expr323))
(declare-const e324 (_ BitVec 64))
(assert (! (= e324 e323) :named expr324))
(declare-const e325 (_ BitVec 64))
(assert (! (= e325 (bvand b76_inner_2_309 e324)) :named expr325))
(declare-const e326 (_ BitVec 64))
(assert (! (= e326 (bvshl b76_inner_1_308 e325)) :named expr326))
(declare-const e327 Bool)
(assert (! (= e327 (= b75_310 e326)) :named expr327))
(declare-const e328 Bool)
(assert (! (= e328 (= b76_some_306 e23)) :named expr328))
(declare-const e329 Bool)
(assert (! (= e329 (=> e23 e327)) :named expr329))
(declare-const e330 Bool)
(assert (! (= e330 (= b77_0_bits_303 b76_inner_0_bits_307)) :named expr330))
(declare-const e331 Bool)
(assert (! (= e331 (= b77_1_304 b76_inner_1_308)) :named expr331))
(declare-const e332 Bool)
(assert (! (= e332 (= b77_2_305 b76_inner_2_309)) :named expr332))
(declare-const e333 Bool)
(assert (! (= e333 (and e330 e331)) :named expr333))
(declare-const e334 Bool)
(assert (! (= e334 (and e333 e332)) :named expr334))
(declare-const e335 Bool)
(assert (! (= e335 (=> b76_some_306 e334)) :named expr335))
(declare-const e336 Bool)
(assert (! (= e336 (= b90_302 b77_1_304)) :named expr336))
(declare-const e337 (_ BitVec 64))
(assert (! (= e337 b90_302) :named expr337))
(declare-const e338 Bool)
(assert (! (= e338 (= b91_301 e337)) :named expr338))
(declare-const b85_339 (_ BitVec 8))
(declare-const b84_some_340 Bool)
(declare-const b84_inner_341 (_ BitVec 8))
(declare-const b83_342 (_ BitVec 64))
(declare-const b82_0_bits_343 Int)
(declare-const b82_1_344 (_ BitVec 64))
(declare-const b81_some_345 Bool)
(declare-const b81_inner_0_bits_346 Int)
(declare-const b81_inner_1_347 (_ BitVec 64))
(declare-const b80_348 (_ BitVec 64))
(declare-const b79_some_349 Bool)
(declare-const b79_inner_350 (_ BitVec 64))
(declare-const b78_351 (_ BitVec 64))
(declare-const e352 Bool)
(assert (! (= e352 (= b78_351 b77_2_305)) :named expr352))
(declare-const e353 Bool)
(assert (! (= e353 (= b78_351 b79_inner_350)) :named expr353))
(declare-const e354 Bool)
(assert (! (= e354 (= b79_some_349 e23)) :named expr354))
(declare-const e355 Bool)
(assert (! (= e355 (=> e23 e353)) :named expr355))
(declare-const e356 Bool)
(assert (! (= e356 (= b80_348 b79_inner_350)) :named expr356))
(declare-const e357 Bool)
(assert (! (= e357 (=> b79_some_349 e356)) :named expr357))
(declare-const e358 (_ BitVec 64))
(assert (! (= e358 b80_348) :named expr358))
(declare-const e359 Bool)
(assert (! (= e359 (= b81_inner_1_347 e358)) :named expr359))
(declare-const e360 Bool)
(assert (! (= e360 (= b81_some_345 e23)) :named expr360))
(declare-const e361 Bool)
(assert (! (= e361 (=> e23 e359)) :named expr361))
(declare-const e362 Bool)
(assert (! (= e362 (= b82_0_bits_343 b81_inner_0_bits_346)) :named expr362))
(declare-const e363 Bool)
(assert (! (= e363 (= b82_1_344 b81_inner_1_347)) :named expr363))
(declare-const e364 Bool)
(assert (! (= e364 (and e362 e363)) :named expr364))
(declare-const e365 Bool)
(assert (! (= e365 (=> b81_some_345 e364)) :named expr365))
(declare-const e366 Bool)
(assert (! (= e366 (= b83_342 b82_1_344)) :named expr366))
(declare-const e367 (_ BitVec 64))
(assert (! (= e367 #b0000000000000000000000000000000000000000000000000000000000000000) :named expr367))
(declare-const e368 Bool)
(assert (! (= e368 (bvsge b83_342 e367)) :named expr368))
(declare-const e369 (_ BitVec 64))
(assert (! (= e369 #b0000000000000000000000000000000000000000000000000000000100000000) :named expr369))
(declare-const e370 Bool)
(assert (! (= e370 (bvslt b83_342 e369)) :named expr370))
(declare-const e371 (_ BitVec 64))
(assert (! (= e371 ((_ zero_extend 56) b84_inner_341)) :named expr371))
(declare-const e372 Bool)
(assert (! (= e372 (= b83_342 e371)) :named expr372))
(declare-const e373 Bool)
(assert (! (= e373 (and e368 e370)) :named expr373))
(declare-const e374 Bool)
(assert (! (= e374 (= b84_some_340 e373)) :named expr374))
(declare-const e375 Bool)
(assert (! (= e375 (=> e373 e372)) :named expr375))
(declare-const e376 Bool)
(assert (! (= e376 (= b85_339 b84_inner_341)) :named expr376))
(declare-const e377 Bool)
(assert (! (= e377 (=> b84_some_340 e376)) :named expr377))
(declare-const e378 (_ BitVec 64))
(assert (! (= e378 ((_ sign_extend 32) b92_269)) :named expr378))
(declare-const e379 (_ BitVec 64))
(assert (! (= e379 (bvadd b89_271 e378)) :named expr379))
(declare-const e380 (_ BitVec 64))
(assert (! (= e380 ((_ zero_extend 56) b85_339)) :named expr380))
(declare-const e381 (_ BitVec 64))
(assert (! (= e381 (bvshl b91_301 e380)) :named expr381))
(declare-const e382 (_ BitVec 64))
(assert (! (= e382 (bvadd e379 e381)) :named expr382))
(declare-const e383 Bool)
(assert (! (= e383 (= b93_addr_266 e382)) :named expr383))
(declare-const e384 Bool)
(assert (! (= e384 (= b93_flags_aligned_267 b20_aligned_143)) :named expr384))
(declare-const e385 Bool)
(assert (! (= e385 (= b93_flags_trapcode_268 b20_trapcode_144)) :named expr385))
(declare-const e386 Bool)
(assert (! (= e386 (and e384 e385)) :named expr386))
(declare-const e387 Bool)
(assert (! (= e387 (= b67_265 b93_addr_266)) :named expr387))
(declare-const e388 Bool)
(assert (! (= e388 (= isa_load_active_9 e23)) :named expr388))
(declare-const e389 Bool)
(assert (! (= e389 (= isa_load_addr_11 b67_265)) :named expr389))
(declare-const e390 Bool)
(assert (! (= e390 (and e226 e222)) :named expr390))
(declare-const e391 Bool)
(assert (! (= e391 (and e390 e225)) :named expr391))
(declare-const e392 Bool)
(assert (! (= e392 (and e391 e227)) :named expr392))
(declare-const e393 Bool)
(assert (! (= e393 (and e392 e229)) :named expr393))
(declare-const e394 Bool)
(assert (! (= e394 (<= e200 e200)) :named expr394))
(declare-const e395 Bool)
(assert (! (= e395 (< e200 e207)) :named expr395))
(declare-const e396 Bool)
(assert (! (= e396 (and e394 e395)) :named expr396))
(declare-const e397 Bool)
(assert (! (= e397 (and e221 e222)) :named expr397))
(declare-const e398 Bool)
(assert (! (= e398 (and e397 e225)) :named expr398))
(declare-const e399 Bool)
(assert (! (= e399 (and e398 e227)) :named expr399))
(declare-const e400 Bool)
(assert (! (= e400 (and e399 e229)) :named expr400))
(declare-const e401 Int)
(assert (! (= e401 8) :named expr401))
(declare-const e402 Bool)
(assert (! (= e402 (<= e200 e223)) :named expr402))
(declare-const e403 Bool)
(assert (! (= e403 (< e223 e207)) :named expr403))
(declare-const e404 Bool)
(assert (! (= e404 (and e402 e403)) :named expr404))
(declare-const e405 Bool)
(assert (! (= e405 (and e224 e222)) :named expr405))
(declare-const e406 Bool)
(assert (! (= e406 (and e405 e225)) :named expr406))
(declare-const e407 Bool)
(assert (! (= e407 (and e406 e227)) :named expr407))
(declare-const e408 Bool)
(assert (! (= e408 (and e407 e229)) :named expr408))
(declare-const e409 Int)
(assert (! (= e409 16) :named expr409))
(declare-const e410 Bool)
(assert (! (= e410 (and e228 e222)) :named expr410))
(declare-const e411 Bool)
(assert (! (= e411 (and e410 e225)) :named expr411))
(declare-const e412 Bool)
(assert (! (= e412 (and e411 e227)) :named expr412))
(declare-const e413 Bool)
(assert (! (= e413 (and e412 e229)) :named expr413))
(declare-const undef_414 Int)
(declare-const e415 Int)
(assert (! (= e415 (ite e413 e26 undef_414)) :named expr415))
(declare-const e416 Int)
(assert (! (= e416 (ite e408 e409 e415)) :named expr416))
(declare-const e417 Int)
(assert (! (= e417 (ite e400 e401 e416)) :named expr417))
(declare-const e418 Int)
(assert (! (= e418 (ite e393 e84 e417)) :named expr418))
(declare-const e419 Bool)
(assert (! (= e419 (= isa_load_size_bits_10 e418)) :named expr419))
(declare-const e420 (_ BitVec 64))
(assert (! (= e420 (bvxor loaded_value_0 b31_181)) :named expr420))
(declare-const e421 Bool)
(assert (! (= e421 (= isa_store_value_15 e420)) :named expr421))
(declare-const e422 Bool)
(assert (! (= e422 (= isa_store_active_12 e23)) :named expr422))
(declare-const e423 Bool)
(assert (! (= e423 (= isa_store_addr_14 b67_265)) :named expr423))
(declare-const e424 Bool)
(assert (! (= e424 (= isa_store_size_bits_13 isa_load_size_bits_10)) :named expr424))
(declare-const undef_Inst2_inst1_425 (_ BitVec 1))
(declare-const undef_Inst2_inst2_426 (_ BitVec 1))
(declare-const undef_Inst3_inst1_427 (_ BitVec 1))
(declare-const undef_Inst3_inst2_428 (_ BitVec 1))
(declare-const undef_Inst3_inst3_429 (_ BitVec 1))
(declare-const e430 Bool)
(assert (! (= e430 (< e200 e201)) :named expr430))
(declare-const e431 Bool)
(assert (! (= e431 (and e394 e430)) :named expr431))
(declare-const e432 Bool)
(assert (! (= e432 (= b69_discriminant_193 e200)) :named expr432))
(declare-const e433 Bool)
(assert (! (= e433 (= b69_Inst_inst_194 b68_205)) :named expr433))
(declare-const e434 Bool)
(assert (! (= e434 (=> e432 e433)) :named expr434))
(declare-const e435 Bool)
(assert (! (= e435 (= b69_discriminant_193 e223)) :named expr435))
(declare-const e436 Bool)
(assert (! (= e436 (= b69_Inst2_inst1_195 undef_Inst2_inst1_425)) :named expr436))
(declare-const e437 Bool)
(assert (! (= e437 (= b69_Inst2_inst2_196 undef_Inst2_inst2_426)) :named expr437))
(declare-const e438 Bool)
(assert (! (= e438 (and e436 e437)) :named expr438))
(declare-const e439 Bool)
(assert (! (= e439 (=> e435 e438)) :named expr439))
(declare-const e440 Bool)
(assert (! (= e440 (= b69_discriminant_193 e215)) :named expr440))
(declare-const e441 Bool)
(assert (! (= e441 (= b69_Inst3_inst1_197 undef_Inst3_inst1_427)) :named expr441))
(declare-const e442 Bool)
(assert (! (= e442 (= b69_Inst3_inst2_198 undef_Inst3_inst2_428)) :named expr442))
(declare-const e443 Bool)
(assert (! (= e443 (= b69_Inst3_inst3_199 undef_Inst3_inst3_429)) :named expr443))
(declare-const e444 Bool)
(assert (! (= e444 (and e441 e442)) :named expr444))
(declare-const e445 Bool)
(assert (! (= e445 (and e444 e443)) :named expr445))
(declare-const e446 Bool)
(assert (! (= e446 (=> e440 e445)) :named expr446))
(declare-const e447 Bool)
(assert (! (= e447 (and e432 e434)) :named expr447))
(declare-const e448 Bool)
(assert (! (= e448 (and e447 e439)) :named expr448))
(declare-const e449 Bool)
(assert (! (= e449 (and e448 e446)) :named expr449))
(declare-const b55_450 (_ BitVec 64))
(declare-const e451 Bool)
(assert (! (= e451 (= b55_450 b27_176)) :named expr451))
(declare-const b56_452 (_ BitVec 64))
(declare-const e453 (_ BitVec 64))
(assert (! (= e453 #b0100000000000000000000000000000000000000000000000000000000000000) :named expr453))
(declare-const e454 (_ BitVec 64))
(assert (! (= e454 (bvor e453 b55_450)) :named expr454))
(declare-const e455 Bool)
(assert (! (= e455 (= b56_452 e454)) :named expr455))
(declare-const b86_456 (_ BitVec 32))
(declare-const e457 (_ BitVec 32))
(assert (! (= e457 ((_ zero_extend 24) b85_339)) :named expr457))
(declare-const e458 Bool)
(assert (! (= e458 (= b86_456 e457)) :named expr458))
(declare-const b87_459 (_ BitVec 32))
(declare-const e460 (_ BitVec 32))
(assert (! (= e460 #b00000000000000000000000000000011) :named expr460))
(declare-const e461 Bool)
(assert (! (= e461 (= b87_459 e460)) :named expr461))
(declare-const b88_some_462 Bool)
(declare-const b88_inner_463 (_ BitVec 1))
(declare-const e464 Bool)
(assert (! (= e464 (bvule b86_456 b87_459)) :named expr464))
(declare-const e465 Bool)
(assert (! (= e465 (= b88_inner_463 e35)) :named expr465))
(declare-const e466 Bool)
(assert (! (= e466 (= b88_some_462 e464)) :named expr466))
(declare-const e467 Bool)
(assert (! (= e467 (=> e464 e465)) :named expr467))
(declare-const e468 Bool)
(assert (! (= e468 (= b35_inner_188 b0_16)) :named expr468))
(declare-const e469 Bool)
(assert (! (= e469 (= b35_some_187 e23)) :named expr469))
(declare-const e470 Bool)
(assert (! (= e470 (=> e23 e468)) :named expr470))
(declare-const e471 Bool)
(assert (! (= e471 (= b22_aligned_163 b20_aligned_143)) :named expr471))
(declare-const e472 Bool)
(assert (! (= e472 (= b22_trapcode_164 b20_trapcode_144)) :named expr472))
(declare-const e473 Bool)
(assert (! (= e473 (and e471 e472)) :named expr473))
(declare-const e474 Bool)
(assert (! (= e474 (= b24_170 b23_168)) :named expr474))
(declare-const e475 Bool)
(assert (! (= e475 (= b26_174 b25_172)) :named expr475))
(declare-const e476 Bool)
(assert (! (= e476 (not e23)) :named expr476))
(declare-const e477 Bool)
(assert (! (= e477 (=> e476 e23)) :named expr477))
(declare-const e478 Bool)
(assert (! (= e478 (not clif_load_active_1)) :named expr478))
(declare-const e479 Bool)
(assert (! (= e479 (=> e476 e478)) :named expr479))
(declare-const e480 Bool)
(assert (! (= e480 (not clif_store_active_4)) :named expr480))
(declare-const e481 Bool)
(assert (! (= e481 (= clif_store_size_bits_5 e223)) :named expr481))
(declare-const e482 Bool)
(assert (! (= e482 (and e480 e481)) :named expr482))
(declare-const e483 Bool)
(assert (! (= e483 (=> e476 e482)) :named expr483))
(declare-const e484 Bool)
(assert (! (= e484 (not clif_trap_8)) :named expr484))
(declare-const e485 Bool)
(assert (! (= e485 (not isa_load_active_9)) :named expr485))
(declare-const e486 Bool)
(assert (! (= e486 (=> e476 e485)) :named expr486))
(declare-const e487 Bool)
(assert (! (= e487 (not isa_store_active_12)) :named expr487))
(declare-const e488 Bool)
(assert (! (= e488 (= isa_store_size_bits_13 e223)) :named expr488))
(declare-const e489 Bool)
(assert (! (= e489 (and e487 e488)) :named expr489))
(declare-const e490 Bool)
(assert (! (= e490 (=> e476 e489)) :named expr490))
(push)
(assert (and e38 e39 e54 e56 e60 e61 e64 e71 e73 e79 e81 e89 e90 e92 e99 e100 e109 e111 e115 e116 e120 e121 e124 e140 e142 e147 e162 e167 e169 e171 e173 e175 e178 e180 e183 e186 e190 b35_some_187 e191 e204 e210 e214 e218 e233 e238 e242 e264 e270 e284 e285 e287 e290 e291 e297 e298 e300 e314 e316 e317 e319 e328 e329 e335 e336 e338 e352 e354 e355 e357 e360 e361 e365 e366 e374 e375 e377 e383 e386 e387 e218 e396 e404 e214 e388 e389 e419 e421 e422 e423 e424 e431 e449 e23 e451 e455 e458 e461 e466 e467 e469 b3_some_17 b6_some_57 b8_some_65 b11_some_82 b13_some_93 b16_some_112 b17_some_117 b19_some_125 b47_some_281 b49_some_276 b74_some_311 b76_some_306 b79_some_349 b81_some_345 b84_some_340 b88_some_462 e473 e474 e475 e477 e479 e483 e484 e486 e490))
(check-sat)
(pop)
(push)
(assert (not (=> (and e38 e39 e54 e56 e60 e61 e64 e71 e73 e79 e81 e89 e90 e92 e99 e100 e109 e111 e115 e116 e120 e121 e124 e140 e142 e147 e162 e167 e169 e171 e173 e175 e178 e180 e183 e186 e190 b35_some_187 e191 e204 e210 e214 e218 e233 e238 e242 e264 e270 e284 e285 e287 e290 e291 e297 e298 e300 e314 e316 e317 e319 e328 e329 e335 e336 e338 e352 e354 e355 e357 e360 e361 e365 e366 e374 e375 e377 e383 e386 e387 e218 e396 e404 e214 e388 e389 e419 e421 e422 e423 e424 e431 e449 e23 e451 e455 e458 e461 e466 e467 e469 b3_some_17 b6_some_57 b8_some_65 b11_some_82 b13_some_93 b16_some_112 b17_some_117 b19_some_125 b47_some_281 b49_some_276 b74_some_311 b76_some_306 b79_some_349 b81_some_345 b84_some_340 b88_some_462 e473 e474 e475 e477 e479 e483 e484 e486 e490) e470)))
(check-sat)
(pop)
(exit)
